db/data/885344462729716321418897403106031311.z3.out
unsat
-------------------
1.062141073
